<?xml version="1.0"?>
<VTKFile type="UnstructuredGrid" version="0.1" byte_order="LittleEndian" header_type="UInt32" compressor="vtkZLibDataCompressor">
  <UnstructuredGrid>
    <Piece NumberOfPoints="1" NumberOfCells="1">
      <PointData>
        <DataArray type="Float32" Name="normalForce" NumberOfComponents="3" format="ascii" RangeMin="166659.953125" RangeMax="166659.953125">
          166659.953125 0 0
          <InformationKey name="L2_NORM_RANGE" location="vtkDataArray" length="2">
            <Value index="0">
              166659.95312
            </Value>
            <Value index="1">
              166659.95312
            </Value>
          </InformationKey>
        </DataArray>
        <DataArray type="Float32" Name="shearForce" NumberOfComponents="3" format="ascii" RangeMin="0" RangeMax="0">
          0 0 0
          <InformationKey name="L2_NORM_RANGE" location="vtkDataArray" length="2">
            <Value index="0">
              0
            </Value>
            <Value index="1">
              0
            </Value>
          </InformationKey>
        </DataArray>
        <DataArray type="Float32" Name="totalForce" NumberOfComponents="3" format="ascii" RangeMin="166659.953125" RangeMax="166659.953125">
          166659.953125 0 0
          <InformationKey name="L2_NORM_RANGE" location="vtkDataArray" length="2">
            <Value index="0">
              166659.95312
            </Value>
            <Value index="1">
              166659.95312
            </Value>
          </InformationKey>
        </DataArray>
        <DataArray type="Float32" Name="mobilizedShear" format="ascii" RangeMin="1" RangeMax="1">
          1
        </DataArray>
        <DataArray type="Float32" Name="totalStress" NumberOfComponents="3" format="ascii" RangeMin="0" RangeMax="0">
          0 0 0
          <InformationKey name="L2_NORM_RANGE" location="vtkDataArray" length="2">
            <Value index="0">
              0
            </Value>
            <Value index="1">
              0
            </Value>
          </InformationKey>
        </DataArray>
      </PointData>
      <CellData>
      </CellData>
      <Points>
        <DataArray type="Float32" Name="Points" NumberOfComponents="3" format="ascii" RangeMin="0.03333333507180214" RangeMax="0.03333333507180214">
          0.03333333507180214 0 0
          <InformationKey name="L2_NORM_RANGE" location="vtkDataArray" length="2">
            <Value index="0">
              0.033333335072
            </Value>
            <Value index="1">
              0.033333335072
            </Value>
          </InformationKey>
        </DataArray>
      </Points>
      <Cells>
        <DataArray type="Int64" Name="connectivity" format="ascii" RangeMin="0" RangeMax="0">
          0
        </DataArray>
        <DataArray type="Int64" Name="offsets" format="ascii" RangeMin="1" RangeMax="1">
          1
        </DataArray>
        <DataArray type="UInt8" Name="types" format="ascii" RangeMin="1" RangeMax="1">
          1
        </DataArray>
      </Cells>
    </Piece>
  </UnstructuredGrid>
</VTKFile>
